Minimize
  - 9 y_0 - 4 y_1 - 7 y_2 - 4 y_3 - 13 y_4 - 10 y_5 - 7 y_6 - 11 y_8 - 9 y_9
   + 46 x_0_3 + 85 x_0_4 + 31 x_0_5 + 34 x_0_6 + 14 x_0_9 + 34 x_1_3
   + 58 x_1_4 + 12 x_1_6 + 17 x_1_7 + 34 x_1_9 + 39 x_2_3 + 75 x_2_8
   + 16 x_2_9 + 45 x_3_6 + 18 x_3_7 + 40 x_3_9 + 70 x_4_5 + 52 x_4_7
   + 21 x_4_8 + 27 x_6_7 + 60 x_6_8 + 46 x_7_8 + 37 x_7_9 + 37 x_7_9
   + 37 x_7_9 + 37 x_7_9 + 37 x_7_9 + 37 x_7_9 + 37 x_7_9 + 37 x_7_9
   + 37 x_7_9 + 37 x_7_9 + 37 x_7_9 + 37 x_7_9 + 37 x_7_9 + 37 x_7_9
   + 37 x_7_9 + 37 x_7_9 + 37 x_7_9 + 37 x_7_9 + 37 x_7_9 + 37 x_7_9
   + 37 x_7_9 + 37 x_7_9 + 37 x_7_9 + 37 x_7_9 + 37 x_7_9 + 37 x_7_9
   + 37 x_7_9 + 37 x_7_9 + 37 x_7_9 + 37 x_7_9 + 37 x_7_9 + 37 x_7_9
   + 37 x_7_9 + 37 x_7_9 + 37 x_7_9 + 37 x_7_9 + 37 x_7_9 + 37 x_7_9
   + 37 x_7_9 + 37 x_7_9 + 37 x_7_9 + 37 x_7_9 + 37 x_7_9 + 37 x_7_9
   + 37 x_7_9 + 37 x_7_9 + 37 x_7_9 + 37 x_7_9 + 37 x_7_9 + 37 x_7_9
   + 37 x_7_9 + 37 x_7_9 + 37 x_7_9 + 37 x_7_9 + 37 x_7_9 + 37 x_7_9
   + 37 x_7_9 + 37 x_7_9 + 37 x_7_9 + 37 x_7_9 + 37 x_7_9 + 37 x_7_9
   + 37 x_7_9 + 37 x_7_9 + 37 x_7_9 + 37 x_7_9 + 37 x_7_9 + 37 x_7_9
   + 37 x_7_9 + 37 x_7_9 + 37 x_7_9 + 37 x_7_9 + 37 x_7_9 + 37 x_7_9
   + 37 x_7_9 + 37 x_7_9 + 37 x_7_9 + 37 x_7_9 + 37 x_7_9 + 37 x_7_9
   + 37 x_7_9 + 37 x_7_9 + 37 x_7_9 + 37 x_7_9 + 37 x_7_9 + 37 x_7_9
   + 37 x_7_9 + 37 x_7_9 + 37 x_7_9 + 37 x_7_9 + 37 x_7_9 + 37 x_7_9
   + 37 x_7_9 + 37 x_7_9 + 37 x_7_9 + 37 x_7_9 + 37 x_7_9 + 37 x_7_9
   + 37 x_7_9 + 37 x_7_9 + 37 x_7_9 + 37 x_7_9 + 37 x_7_9 + 37 x_7_9
   + 37 x_7_9 + 37 x_7_9 + 37 x_7_9 + 37 x_7_9 + 37 x_7_9 + 37 x_7_9
   + 37 x_7_9 + 37 x_7_9 + 37 x_7_9 + 37 x_7_9 + 37 x_7_9 + 37 x_7_9
   + 37 x_7_9 + 37 x_7_9 + 37 x_7_9 + 37 x_7_9 + 37 x_7_9 + 37 x_7_9
   + 37 x_7_9 + 37 x_7_9 + 37 x_7_9 + 37 x_7_9 + 37 x_7_9 + 37 x_7_9
   + 37 x_7_9 + 37 x_7_9 + 37 x_7_9 + 37 x_7_9 + 37 x_7_9 + 37 x_7_9
   + 37 x_7_9 + 37 x_7_9 + 37 x_7_9 + 37 x_7_9 + 37 x_7_9 + 37 x_7_9
   + 37 x_7_9 + 37 x_7_9 + 37 x_7_9 + 37 x_7_9 + 37 x_7_9 + 37 x_7_9
   + 37 x_7_9 + 37 x_7_9 + 37 x_7_9 + 37 x_7_9 + 37 x_7_9 + 37 x_7_9
   + 37 x_7_9 + 37 x_7_9 + 37 x_7_9 + 37 x_7_9 + 37 x_7_9 + 37 x_7_9
   + 37 x_7_9 + 37 x_7_9 + 37 x_7_9 + 37 x_7_9 + 37 x_7_9 + 37 x_7_9
   + 37 x_7_9 + 37 x_7_9 + 37 x_7_9 + 37 x_7_9 + 37 x_7_9 + 37 x_7_9
   + 37 x_7_9 + 37 x_7_9 + 37 x_7_9 + 37 x_7_9 + 37 x_7_9 + 37 x_7_9
   + 37 x_7_9 + 37 x_7_9 + 37 x_7_9 + 37 x_7_9 + 37 x_7_9 + 37 x_7_9
   + 37 x_7_9 + 37 x_7_9 + 37 x_7_9 + 37 x_7_9 + 37 x_7_9 + 37 x_7_9
   + 37 x_7_9 + 37 x_7_9 + 37 x_7_9 + 37 x_7_9 + 37 x_7_9 + 37 x_7_9
   + 37 x_7_9 + 37 x_7_9 + 37 x_7_9 + 37 x_7_9 + 37 x_7_9 + 37 x_7_9
   + 37 x_7_9 + 37 x_7_9 + 37 x_7_9 + 37 x_7_9 + 37 x_7_9 + 37 x_7_9
   + 37 x_7_9 + 37 x_7_9 + 37 x_7_9 + 37 x_7_9 + 74 Constant
Subject To
 c_0: y_2 = 1
 c_1_0: y_0 >= 1
 c_1_1: y_1 >= 1
 c_1_2: y_2 >= 1
 c_1_3: y_3 >= 1
 c_1_4: y_4 >= 1
 c_1_5: y_5 >= 1
 c_1_6: y_6 >= 1
 c_1_7: y_7 >= 1
 c_1_8: y_8 >= 1
 c_1_9: y_9 >= 1
 c_2_0: - 2 y_0 + x_0_3 + x_0_4 + x_0_5 + x_0_6 + x_0_9 = 0
 c_2_1: - 2 y_1 + x_1_3 + x_1_4 + x_1_6 + x_1_7 + x_1_9 = 0
 c_2_2: - 2 y_2 + x_2_3 + x_2_8 + x_2_9 = 0
 c_2_3: - 2 y_3 + x_0_3 + x_1_3 + x_2_3 + x_3_6 + x_3_7 + x_3_9 = 0
 c_2_4: - 2 y_4 + x_0_4 + x_1_4 + x_4_5 + x_4_7 + x_4_8 = 0
 c_2_5: - 2 y_5 + x_0_5 + x_4_5 = 0
 c_2_6: - 2 y_6 + x_0_6 + x_1_6 + x_3_6 + x_6_7 + x_6_8 = 0
 c_2_7: - 2 y_7 + x_1_7 + x_3_7 + x_4_7 + x_6_7 + x_7_8 + 210 x_7_9 = 0
 c_2_8: - 2 y_8 + x_2_8 + x_4_8 + x_6_8 + x_7_8 = 0
 c_2_9: - 2 y_9 + x_0_9 + x_1_9 + x_2_9 + x_3_9 + 210 x_7_9 = 0
Bounds
 Constant = 1
Binaries
 y_0 y_1 y_2 y_3 y_4 y_5 y_6 y_7 y_8 y_9 x_0_3 x_0_4 x_0_5 x_0_6 x_0_9
 x_1_3 x_1_4 x_1_6 x_1_7 x_1_9 x_2_3 x_2_8 x_2_9 x_3_6 x_3_7 x_3_9 x_4_5
 x_4_7 x_4_8 x_6_7 x_6_8 x_7_8 x_7_9 x_7_9 x_7_9 x_7_9 x_7_9 x_7_9 x_7_9
 x_7_9 x_7_9 x_7_9 x_7_9 x_7_9 x_7_9 x_7_9 x_7_9 x_7_9 x_7_9 x_7_9 x_7_9
 x_7_9 x_7_9 x_7_9 x_7_9 x_7_9 x_7_9 x_7_9 x_7_9 x_7_9 x_7_9 x_7_9 x_7_9
 x_7_9 x_7_9 x_7_9 x_7_9 x_7_9 x_7_9 x_7_9 x_7_9 x_7_9 x_7_9 x_7_9 x_7_9
 x_7_9 x_7_9 x_7_9 x_7_9 x_7_9 x_7_9 x_7_9 x_7_9 x_7_9 x_7_9 x_7_9 x_7_9
 x_7_9 x_7_9 x_7_9 x_7_9 x_7_9 x_7_9 x_7_9 x_7_9 x_7_9 x_7_9 x_7_9 x_7_9
 x_7_9 x_7_9 x_7_9 x_7_9 x_7_9 x_7_9 x_7_9 x_7_9 x_7_9 x_7_9 x_7_9 x_7_9
 x_7_9 x_7_9 x_7_9 x_7_9 x_7_9 x_7_9 x_7_9 x_7_9 x_7_9 x_7_9 x_7_9 x_7_9
 x_7_9 x_7_9 x_7_9 x_7_9 x_7_9 x_7_9 x_7_9 x_7_9 x_7_9 x_7_9 x_7_9 x_7_9
 x_7_9 x_7_9 x_7_9 x_7_9 x_7_9 x_7_9 x_7_9 x_7_9 x_7_9 x_7_9 x_7_9 x_7_9
 x_7_9 x_7_9 x_7_9 x_7_9 x_7_9 x_7_9 x_7_9 x_7_9 x_7_9 x_7_9 x_7_9 x_7_9
 x_7_9 x_7_9 x_7_9 x_7_9 x_7_9 x_7_9 x_7_9 x_7_9 x_7_9 x_7_9 x_7_9 x_7_9
 x_7_9 x_7_9 x_7_9 x_7_9 x_7_9 x_7_9 x_7_9 x_7_9 x_7_9 x_7_9 x_7_9 x_7_9
 x_7_9 x_7_9 x_7_9 x_7_9 x_7_9 x_7_9 x_7_9 x_7_9 x_7_9 x_7_9 x_7_9 x_7_9
 x_7_9 x_7_9 x_7_9 x_7_9 x_7_9 x_7_9 x_7_9 x_7_9 x_7_9 x_7_9 x_7_9 x_7_9
 x_7_9 x_7_9 x_7_9 x_7_9 x_7_9 x_7_9 x_7_9 x_7_9 x_7_9 x_7_9 x_7_9 x_7_9
 x_7_9 x_7_9 x_7_9 x_7_9 x_7_9 x_7_9 x_7_9 x_7_9 x_7_9 x_7_9 x_7_9 x_7_9
 x_7_9 x_7_9 x_7_9 x_7_9 x_7_9 x_7_9 x_7_9 x_7_9 x_7_9 x_7_9 x_7_9
End
